rc1_10_9

VEHICLE
NUMBER   CAPACITY
250     200

CUSTOMER
CUST NO. XCOORD.  YCOORD.  DEMAND  READY TIME DUE DATE  SERVICE TIME

0   250    250     0     0    1821     0
467 172 314 9 500 620 10
292 154 374 36 892 1012 10
785 162 388 11 1081 1201 10
283 111 392 18 1124 1244 10
509 146 313 22 1150 1270 10
641 159 299 12 971 1091 10
246 175 352 12 1565 1685 10
258 149 341 6 359 479 10
770 84 377 10 881 1001 10
387 142 360 20 1487 1607 10
308 135 400 20 254 374 10
144 142 372 18 162 282 10
551 107 374 8 869 989 10
642 95 382 19 203 323 10
583 104 349 20 964 1084 10
255 115 395 11 770 890 10
383 146 376 8 189 309 10
626 170 347 15 391 511 10
791 96 346 26 181 301 10
984 154 392 9 171 291 10
